40
0 1 0.5 0.09
0 2 0.55 0.25
0 3 0.44 0.25
0 4 0.58 0.2
0 5 0.85 0.3
0 6 0.58 0.17
0 7 0.43 0.12
0 8 0.4 0.16
0 9 0.59 0.13
0 10 0.5 0.19
0 11 0.58 0.13
0 12 0.7 0.12
0 13 0.54 0.23
0 14 0.56 0.11
0 15 0.76 0.27
0 16 0.62 0.2
0 17 0.31 0.13
0 18 0.63 0.14
0 19 0.73 0.19
0 20 0.38 0.3
0 21 0.62 0.29
0 22 0.63 0.27
0 23 0.3 0.23
0 24 0.56 0.28
0 25 0.42 0.07
0 26 0.62 0.19
0 27 0.62 0.07
0 28 0.7 0.22
0 29 0.56 0.26
0 30 0.68 0.17
0 31 0.54 0.18
0 32 0.14 0.14
0 33 0.58 0.18
0 34 0.56 0.2
0 35 0.26 0.16
0 36 0.46 0.22
0 37 0.56 0.05
0 38 0.49 0.27
0 39 0.51 0.19
1 2 0.66 0.2
1 3 0.62 0.22
1 4 0.64 0.24
1 5 0.78 0.32
1 6 0.72 0.16
1 7 0.52 0.21
1 8 0.64 0.19
1 9 0.78 0.12
1 10 0.34 0.15
1 11 0.5 0.22
1 12 0.38 0.18
1 13 0.61 0.28
1 14 0.72 0.1
1 15 0.49 0.18
1 16 0.42 0.18
1 17 0.63 0.18
1 18 0.65 0.23
1 19 0.44 0.13
1 20 0.46 0.32
1 21 0.62 0.31
1 22 0.43 0.26
1 23 0.53 0.3
1 24 0.66 0.24
1 25 0.51 0.02
1 26 0.54 0.14
1 27 0.65 0.11
1 28 0.28 0.16
1 29 0.64 0.29
1 30 0.69 0.16
1 31 0.62 0.16
1 32 0.47 0.19
1 33 0.6 0.16
1 34 0.64 0.24
1 35 0.54 0.18
1 36 0.74 0.19
1 37 0.6 0.04
1 38 0.66 0.31
1 39 0.84 0.14
2 3 0.5 0.34
2 4 0.66 0.33
2 5 0.7 0.34
2 6 0.65 0.27
2 7 0.56 0.32
2 8 0.56 0.14
2 9 0.54 0.18
2 10 0.74 0.31
2 11 0.58 0.23
2 12 0.56 0.28
2 13 0.57 0.33
2 14 0.64 0.25
2 15 0.52 0.24
2 16 0.55 0.1
2 17 0.44 0.17
2 18 0.71 0.32
2 19 0.48 0.18
2 20 0.58 0.38
2 21 0.56 0.12
2 22 0.46 0.19
2 23 0.43 0.31
2 24 0.4 0.36
2 25 0.32 0.18
2 26 0.12 0.06
2 27 0.44 0.27
2 28 0.54 0.22
2 29 0.64 0.27
2 30 0.72 0.23
2 31 0.65 0.23
2 32 0.6 0.24
2 33 0.58 0.23
2 34 0.64 0.15
2 35 0.6 0.16
2 36 0.39 0.22
2 37 0.52 0.2
2 38 0.57 0.23
2 39 0.63 0.3
3 4 0.56 0.33
3 5 0.62 0.24
3 6 0.52 0.08
3 7 0.68 0.28
3 8 0.56 0.21
3 9 0.68 0.29
3 10 0.61 0.32
3 11 0.64 0.38
3 12 0.76 0.25
3 13 0.46 0.2
3 14 0.66 0.22
3 15 0.74 0.33
3 16 0.54 0.25
3 17 0.67 0.18
3 18 0.62 0.24
3 19 0.45 0.28
3 20 0.74 0.28
3 21 0.36 0.22
3 22 0.28 0.22
3 23 0.58 0.37
3 24 0.76 0.22
3 25 0.72 0.22
3 26 0.59 0.29
3 27 0.72 0.31
3 28 0.84 0.27
3 29 0.8 0.32
3 30 0.24 0.21
3 31 0.47 0.24
3 32 0.5 0.11
3 33 0.86 0.24
3 34 0.66 0.26
3 35 0.7 0.21
3 36 0.68 0.22
3 37 0.77 0.24
3 38 0.64 0.3
3 39 0.68 0.12
4 5 0.84 0.1
4 6 0.48 0.25
4 7 0.43 0.28
4 8 0.55 0.28
4 9 0.58 0.19
4 10 0.48 0.15
4 11 0.47 0.18
4 12 0.44 0.08
4 13 0.64 0.29
4 14 0.54 0.16
4 15 0.42 0.22
4 16 0.6 0.3
4 17 0.56 0.25
4 18 0.64 0.29
4 19 0.53 0.22
4 20 0.58 0.3
4 21 0.75 0.31
4 22 0.58 0.24
4 23 0.44 0.3
4 24 0.72 0.24
4 25 0.64 0.22
4 26 0.54 0.32
4 27 0.86 0.26
4 28 0.77 0.28
4 29 0.4 0.06
4 30 0.4 0.22
4 31 0.76 0.14
4 32 0.72 0.27
4 33 0.56 0.14
4 34 0.54 0.26
4 35 0.68 0.22
4 36 0.72 0.16
4 37 0.64 0.2
4 38 0.46 0.26
4 39 0.7 0.21
5 6 0.46 0.31
5 7 0.43 0.18
5 8 0.65 0.24
5 9 0.63 0.29
5 10 0.56 0.19
5 11 0.74 0.28
5 12 0.4 0.18
5 13 0.71 0.29
5 14 0.37 0.22
5 15 0.65 0.32
5 16 0.43 0.28
5 17 0.58 0.21
5 18 0.68 0.29
5 19 0.72 0.22
5 20 0.47 0.32
5 21 0.7 0.31
5 22 0.54 0.3
5 23 0.83 0.34
5 24 0.68 0.34
5 25 0.48 0.3
5 26 0.68 0.28
5 27 0.43 0.32
5 28 0.62 0.24
5 29 0.62 0.16
5 30 0.65 0.32
5 31 0.66 0.24
5 32 0.75 0.28
5 33 0.69 0.24
5 34 0.78 0.22
5 35 0.84 0.18
5 36 0.46 0.16
5 37 0.45 0.28
5 38 0.79 0.26
5 39 0.68 0.31
6 7 0.74 0.29
6 8 0.68 0.13
6 9 0.7 0.21
6 10 0.38 0.24
6 11 0.61 0.3
6 12 0.52 0.17
6 13 0.63 0.12
6 14 0.44 0.14
6 15 0.74 0.26
6 16 0.68 0.17
6 17 0.64 0.1
6 18 0.62 0.16
6 19 0.67 0.21
6 20 0.28 0.2
6 21 0.42 0.26
6 22 0.71 0.26
6 23 0.61 0.29
6 24 0.57 0.14
6 25 0.46 0.14
6 26 0.66 0.21
6 27 0.76 0.23
6 28 0.63 0.19
6 29 0.36 0.28
6 30 0.34 0.14
6 31 0.52 0.16
6 32 0.72 0.03
6 33 0.57 0.16
6 34 0.62 0.23
6 35 0.78 0.13
6 36 0.56 0.19
6 37 0.55 0.16
6 38 0.58 0.22
6 39 0.76 0.04
7 8 0.52 0.18
7 9 0.64 0.25
7 10 0.53 0.31
7 11 0.68 0.25
7 12 0.71 0.24
7 13 0.4 0.34
7 14 0.39 0.23
7 15 0.72 0.33
7 16 0.5 0.22
7 17 0.52 0.21
7 18 0.5 0.26
7 19 0.3 0.18
7 20 0.59 0.42
7 21 0.32 0.27
7 22 0.53 0.26
7 23 0.41 0.3
7 24 0.78 0.34
7 25 0.64 0.19
7 26 0.44 0.26
7 27 0.82 0.19
7 28 0.6 0.3
7 29 0.64 0.34
7 30 0.59 0.27
7 31 0.56 0.3
7 32 0.57 0.26
7 33 0.79 0.3
7 34 0.78 0.28
7 35 0.68 0.24
7 36 0.65 0.24
7 37 0.27 0.17
7 38 0.48 0.36
7 39 0.45 0.25
8 9 0.66 0.23
8 10 0.44 0.28
8 11 0.76 0.29
8 12 0.56 0.28
8 13 0.26 0.19
8 14 0.6 0.21
8 15 0.44 0.2
8 16 0.22 0.04
8 17 0.59 0.03
8 18 0.63 0.25
8 19 0.73 0.12
8 20 0.56 0.33
8 21 0.26 0.18
8 22 0.28 0.19
8 23 0.58 0.26
8 24 0.45 0.27
8 25 0.72 0.17
8 26 0.65 0.08
8 27 0.58 0.2
8 28 0.5 0.12
8 29 0.7 0.22
8 30 0.59 0.09
8 31 0.47 0.22
8 32 0.51 0.1
8 33 0.68 0.22
8 34 0.79 0.1
8 35 0.54 0.06
8 36 0.54 0.12
8 37 0.64 0.15
8 38 0.67 0.18
8 39 0.69 0.17
9 10 0.44 0.13
9 11 0.4 0.25
9 12 0.67 0.15
9 13 0.4 0.27
9 14 0.26 0.07
9 15 0.61 0.19
9 16 0.74 0.26
9 17 0.4 0.22
9 18 0.54 0.27
9 19 0.6 0.22
9 20 0.7 0.21
9 21 0.61 0.22
9 22 0.6 0.15
9 23 0.58 0.33
9 24 0.39 0.28
9 25 0.69 0.1
9 26 0.58 0.22
9 27 0.6 0.19
9 28 0.7 0.28
9 29 0.52 0.25
9 30 0.72 0.2
9 31 0.62 0.05
9 32 0.45 0.18
9 33 0.18 0.05
9 34 0.48 0.27
9 35 0.59 0.22
9 36 0.47 0.18
9 37 0.38 0.08
9 38 0.44 0.25
9 39 0.25 0.18
10 11 0.58 0.32
10 12 0.46 0.18
10 13 0.53 0.3
10 14 0.38 0.1
10 15 0.68 0.22
10 16 0.55 0.32
10 17 0.52 0.25
10 18 0.46 0.33
10 19 0.52 0.27
10 20 0.34 0.24
10 21 0.68 0.25
10 22 0.48 0.18
10 23 0.56 0.2
10 24 0.62 0.31
10 25 0.65 0.16
10 26 0.64 0.28
10 27 0.52 0.25
10 28 0.62 0.28
10 29 0.3 0.21
10 30 0.5 0.26
10 31 0.42 0.08
10 32 0.64 0.21
10 33 0.26 0.08
10 34 0.56 0.3
10 35 0.76 0.22
10 36 0.55 0.21
10 37 0.26 0.14
10 38 0.36 0.28
10 39 0.61 0.21
11 12 0.48 0.25
11 13 0.66 0.36
11 14 0.48 0.24
11 15 0.5 0.25
11 16 0.67 0.27
11 17 0.63 0.26
11 18 0.46 0.27
11 19 0.56 0.32
11 20 0.7 0.43
11 21 0.52 0.35
11 22 0.61 0.4
11 23 0.73 0.22
11 24 0.5 0.24
11 25 0.62 0.2
11 26 0.58 0.26
11 27 0.61 0.2
11 28 0.78 0.3
11 29 0.82 0.24
11 30 0.4 0.22
11 31 0.48 0.3
11 32 0.72 0.27
11 33 0.58 0.3
11 34 0.7 0.21
11 35 0.7 0.29
11 36 0.42 0.34
11 37 0.56 0.18
11 38 0.22 0.14
11 39 0.48 0.28
12 13 0.58 0.29
12 14 0.41 0.08
12 15 0.54 0.22
12 16 0.63 0.24
12 17 0.51 0.25
12 18 0.44 0.25
12 19 0.47 0.22
12 20 0.64 0.36
12 21 0.61 0.24
12 22 0.66 0.24
12 23 0.6 0.23
12 24 0.28 0.16
12 25 0.57 0.16
12 26 0.44 0.28
12 27 0.6 0.19
12 28 0.52 0.34
12 29 0.34 0.14
12 30 0.82 0.26
12 31 0.54 0.2
12 32 0.66 0.2
12 33 0.64 0.2
12 34 0.6 0.18
12 35 0.77 0.28
12 36 0.66 0.24
12 37 0.44 0.14
12 38 0.7 0.26
12 39 0.52 0.13
13 14 0.34 0.22
13 15 0.57 0.29
13 16 0.48 0.23
13 17 0.54 0.16
13 18 0.66 0.26
13 19 0.7 0.19
13 20 0.46 0.22
13 21 0.52 0.21
13 22 0.54 0.14
13 23 0.32 0.24
13 24 0.6 0.26
13 25 0.62 0.26
13 26 0.69 0.27
13 27 0.7 0.3
13 28 0.56 0.25
13 29 0.54 0.23
13 30 0.7 0.2
13 31 0.73 0.22
13 32 0.42 0.09
13 33 0.57 0.22
13 34 0.7 0.29
13 35 0.28 0.19
13 36 0.28 0.13
13 37 0.46 0.28
13 38 0.5 0.28
13 39 0.65 0.16
14 15 0.58 0.26
14 16 0.54 0.24
14 17 0.38 0.23
14 18 0.67 0.25
14 19 0.69 0.2
14 20 0.44 0.28
14 21 0.65 0.23
14 22 0.38 0.16
14 23 0.66 0.3
14 24 0.65 0.24
14 25 0.56 0.08
14 26 0.6 0.2
14 27 0.58 0.17
14 28 0.62 0.26
14 29 0.68 0.22
14 30 0.78 0.18
14 31 0.49 0.12
14 32 0.55 0.17
14 33 0.44 0.12
14 34 0.72 0.26
14 35 0.61 0.2
14 36 0.62 0.25
14 37 0.12 0.06
14 38 0.46 0.32
14 39 0.51 0.18
15 16 0.22 0.16
15 17 0.46 0.23
15 18 0.62 0.29
15 19 0.45 0.22
15 20 0.59 0.3
15 21 0.56 0.31
15 22 0.58 0.24
15 23 0.54 0.38
15 24 0.57 0.37
15 25 0.6 0.2
15 26 0.4 0.18
15 27 0.6 0.29
15 28 0.59 0.28
15 29 0.38 0.16
15 30 0.5 0.12
15 31 0.68 0.14
15 32 0.63 0.23
15 33 0.59 0.14
15 34 0.72 0.22
15 35 0.72 0.22
15 36 0.3 0.16
15 37 0.64 0.22
15 38 0.58 0.3
15 39 0.36 0.27
16 17 0.68 0.07
16 18 0.7 0.22
16 19 0.56 0.08
16 20 0.74 0.37
16 21 0.48 0.22
16 22 0.49 0.15
16 23 0.4 0.22
16 24 0.35 0.26
16 25 0.63 0.16
16 26 0.43 0.04
16 27 0.38 0.24
16 28 0.54 0.16
16 29 0.48 0.24
16 30 0.54 0.13
16 31 0.46 0.25
16 32 0.73 0.14
16 33 0.71 0.25
16 34 0.57 0.06
16 35 0.72 0.1
16 36 0.44 0.14
16 37 0.42 0.18
16 38 0.76 0.14
16 39 0.58 0.21
17 18 0.48 0.22
17 19 0.42 0.14
17 20 0.58 0.3
17 21 0.33 0.16
17 22 0.66 0.22
17 23 0.61 0.29
17 24 0.59 0.24
17 25 0.42 0.16
17 26 0.56 0.11
17 27 0.6 0.17
17 28 0.54 0.09
17 29 0.44 0.19
17 30 0.86 0.12
17 31 0.57 0.2
17 32 0.17 0.07
17 33 0.58 0.2
17 34 0.34 0.13
17 35 0.26 0.03
17 36 0.64 0.09
17 37 0.26 0.17
17 38 0.47 0.21
17 39 0.6 0.14
18 19 0.23 0.14
18 20 0.6 0.36
18 21 0.5 0.32
18 22 0.74 0.35
18 23 0.74 0.24
18 24 0.71 0.22
18 25 0.43 0.21
18 26 0.59 0.26
18 27 0.32 0.21
18 28 0.85 0.22
18 29 0.48 0.23
18 30 0.38 0.3
18 31 0.61 0.25
18 32 0.49 0.19
18 33 0.64 0.25
18 34 0.68 0.28
18 35 0.38 0.19
18 36 0.49 0.13
18 37 0.72 0.19
18 38 0.65 0.22
18 39 0.64 0.12
19 20 0.83 0.35
19 21 0.47 0.25
19 22 0.52 0.23
19 23 0.64 0.3
19 24 0.48 0.2
19 25 0.56 0.12
19 26 0.36 0.12
19 27 0.55 0.21
19 28 0.62 0.18
19 29 0.38 0.16
19 30 0.56 0.21
19 31 0.38 0.19
19 32 0.59 0.18
19 33 0.62 0.19
19 34 0.53 0.14
19 35 0.61 0.12
19 36 0.56 0.06
19 37 0.57 0.14
19 38 0.42 0.22
19 39 0.44 0.24
20 21 0.7 0.33
20 22 0.82 0.26
20 23 0.68 0.44
20 24 0.76 0.34
20 25 0.74 0.3
20 26 0.7 0.41
20 27 0.86 0.23
20 28 0.74 0.36
20 29 0.61 0.36
20 30 0.62 0.34
20 31 0.68 0.16
20 32 0.52 0.23
20 33 0.6 0.16
20 34 0.75 0.38
20 35 0.64 0.33
20 36 0.44 0.29
20 37 0.32 0.28
20 38 0.66 0.36
20 39 0.8 0.24
21 22 0.5 0.07
21 23 0.46 0.33
21 24 0.54 0.4
21 25 0.68 0.29
21 26 0.68 0.18
21 27 0.72 0.27
21 28 0.52 0.19
21 29 0.44 0.29
21 30 0.6 0.27
21 31 0.69 0.17
21 32 0.5 0.23
21 33 0.67 0.17
21 34 0.67 0.27
21 35 0.36 0.13
21 36 0.55 0.19
21 37 0.59 0.27
21 38 0.74 0.34
21 39 0.61 0.3
22 23 0.44 0.26
22 24 0.7 0.33
22 25 0.44 0.24
22 26 0.58 0.19
22 27 0.65 0.33
22 28 0.66 0.22
22 29 0.56 0.3
22 30 0.52 0.28
22 31 0.19 0.1
22 32 0.49 0.23
22 33 0.62 0.1
22 34 0.7 0.21
22 35 0.57 0.2
22 36 0.52 0.23
22 37 0.5 0.22
22 38 0.39 0.29
22 39 0.41 0.23
23 24 0.52 0.21
23 25 0.68 0.3
23 26 0.55 0.26
23 27 0.72 0.3
23 28 0.7 0.36
23 29 0.26 0.24
23 30 0.55 0.3
23 31 0.63 0.28
23 32 0.44 0.32
23 33 0.69 0.28
23 34 0.39 0.16
23 35 0.56 0.32
23 36 0.56 0.34
23 37 0.62 0.28
23 38 0.79 0.08
23 39 0.74 0.25
24 25 0.42 0.22
24 26 0.52 0.3
24 27 0.61 0.31
24 28 0.7 0.28
24 29 0.48 0.3
24 30 0.66 0.28
24 31 0.66 0.23
24 32 0.42 0.17
24 33 0.36 0.23
24 34 0.66 0.32
24 35 0.52 0.27
24 36 0.4 0.26
24 37 0.72 0.24
24 38 0.72 0.29
24 39 0.39 0.1
25 26 0.2 0.12
25 27 0.52 0.09
25 28 0.47 0.18
25 29 0.52 0.28
25 30 0.56 0.14
25 31 0.4 0.15
25 32 0.56 0.17
25 33 0.62 0.15
25 34 0.32 0.22
25 35 0.62 0.16
25 36 0.58 0.18
25 37 0.44 0.02
25 38 0.76 0.3
25 39 0.66 0.12
26 27 0.42 0.21
26 28 0.42 0.16
26 29 0.52 0.26
26 30 0.6 0.17
26 31 0.54 0.27
26 32 0.63 0.18
26 33 0.7 0.27
26 34 0.52 0.1
26 35 0.48 0.1
26 36 0.51 0.16
26 37 0.48 0.14
26 38 0.6 0.18
26 39 0.75 0.24
27 28 0.84 0.2
27 29 0.46 0.3
27 30 0.62 0.23
27 31 0.69 0.24
27 32 0.65 0.21
27 33 0.74 0.24
27 34 0.58 0.27
27 35 0.42 0.14
27 36 0.56 0.2
27 37 0.64 0.11
27 38 0.76 0.34
27 39 0.58 0.21
28 29 0.44 0.22
28 30 0.76 0.21
28 31 0.54 0.25
28 32 0.71 0.16
28 33 0.55 0.25
28 34 0.36 0.2
28 35 0.6 0.06
28 36 0.56 0.12
28 37 0.5 0.2
28 38 0.58 0.28
28 39 0.66 0.23
29 30 0.68 0.28
29 31 0.68 0.2
29 32 0.58 0.26
29 33 0.56 0.2
29 34 0.36 0.3
29 35 0.7 0.16
29 36 0.5 0.1
29 37 0.56 0.26
29 38 0.66 0.32
29 39 0.54 0.27
30 31 0.56 0.24
30 32 0.74 0.11
30 33 0.66 0.24
30 34 0.84 0.19
30 35 0.6 0.15
30 36 0.77 0.21
30 37 0.67 0.12
30 38 0.53 0.22
30 39 0.47 0.18
31 32 0.4 0.13
31 33 0.44 0.0
31 34 0.62 0.22
31 35 0.76 0.19
31 36 0.64 0.13
31 37 0.61 0.13
31 38 0.36 0.2
31 39 0.6 0.13
32 33 0.44 0.13
32 34 0.51 0.2
32 35 0.4 0.1
32 36 0.57 0.16
32 37 0.43 0.19
32 38 0.63 0.25
32 39 0.47 0.07
33 34 0.3 0.22
33 35 0.77 0.19
33 36 0.29 0.13
33 37 0.52 0.13
33 38 0.62 0.2
33 39 0.43 0.13
34 35 0.56 0.16
34 36 0.42 0.2
34 37 0.6 0.24
34 38 0.48 0.08
34 39 0.4 0.27
35 36 0.54 0.06
35 37 0.52 0.14
35 38 0.48 0.24
35 39 0.77 0.17
36 37 0.74 0.2
36 38 0.64 0.28
36 39 0.53 0.23
37 38 0.34 0.32
37 39 0.63 0.14
38 39 0.66 0.26
